p edge 65 1040
e 1 2
e 1 3
e 1 4
e 1 5
e 1 6
e 1 7
e 1 8
e 1 9
e 1 10
e 1 11
e 1 12
e 1 13
e 1 14
e 1 15
e 1 16
e 1 17
e 1 18
e 1 19
e 1 20
e 1 21
e 1 22
e 1 23
e 1 24
e 1 25
e 1 26
e 1 27
e 1 28
e 1 29
e 1 30
e 1 31
e 1 32
e 1 33
e 2 3
e 2 4
e 2 5
e 2 6
e 2 7
e 2 8
e 2 9
e 2 10
e 2 11
e 2 12
e 2 13
e 2 14
e 2 15
e 2 16
e 2 17
e 2 34
e 2 35
e 2 36
e 2 37
e 2 38
e 2 39
e 2 40
e 2 41
e 2 42
e 2 43
e 2 44
e 2 45
e 2 46
e 2 47
e 2 48
e 2 49
e 3 5
e 3 6
e 3 7
e 3 10
e 3 14
e 3 17
e 3 21
e 3 22
e 3 23
e 3 26
e 3 27
e 3 30
e 3 31
e 3 32
e 3 35
e 3 37
e 3 38
e 3 40
e 3 42
e 3 45
e 3 46
e 3 47
e 3 50
e 3 55
e 3 58
e 3 59
e 3 62
e 3 63
e 3 64
e 3 65
e 4 5
e 4 6
e 4 8
e 4 9
e 4 10
e 4 12
e 4 18
e 4 21
e 4 23
e 4 27
e 4 28
e 4 29
e 4 31
e 4 33
e 4 35
e 4 41
e 4 43
e 4 44
e 4 45
e 4 46
e 4 47
e 4 48
e 4 52
e 4 54
e 4 56
e 4 60
e 4 61
e 4 63
e 4 64
e 4 65
e 5 10
e 5 11
e 5 14
e 5 15
e 5 22
e 5 23
e 5 24
e 5 25
e 5 28
e 5 29
e 5 31
e 5 32
e 5 36
e 5 37
e 5 39
e 5 40
e 5 45
e 5 47
e 5 48
e 5 49
e 5 51
e 5 52
e 5 53
e 5 54
e 5 59
e 5 60
e 5 64
e 5 65
e 6 7
e 6 15
e 6 16
e 6 17
e 6 20
e 6 21
e 6 22
e 6 25
e 6 26
e 6 28
e 6 32
e 6 33
e 6 34
e 6 35
e 6 36
e 6 43
e 6 44
e 6 47
e 6 48
e 6 49
e 6 52
e 6 55
e 6 56
e 6 58
e 6 60
e 6 62
e 6 63
e 6 65
e 7 8
e 7 11
e 7 15
e 7 16
e 7 19
e 7 23
e 7 24
e 7 25
e 7 27
e 7 28
e 7 30
e 7 31
e 7 37
e 7 41
e 7 42
e 7 43
e 7 46
e 7 47
e 7 48
e 7 49
e 7 51
e 7 55
e 7 56
e 7 57
e 7 58
e 7 61
e 7 62
e 7 64
e 8 9
e 8 11
e 8 12
e 8 13
e 8 15
e 8 19
e 8 20
e 8 24
e 8 26
e 8 30
e 8 32
e 8 33
e 8 35
e 8 37
e 8 40
e 8 42
e 8 44
e 8 46
e 8 47
e 8 51
e 8 53
e 8 54
e 8 55
e 8 60
e 8 61
e 8 63
e 8 64
e 8 65
e 9 11
e 9 13
e 9 14
e 9 16
e 9 17
e 9 19
e 9 20
e 9 21
e 9 23
e 9 28
e 9 32
e 9 33
e 9 34
e 9 37
e 9 39
e 9 41
e 9 43
e 9 45
e 9 46
e 9 50
e 9 54
e 9 57
e 9 58
e 9 59
e 9 60
e 9 62
e 9 64
e 9 65
e 10 11
e 10 12
e 10 13
e 10 16
e 10 18
e 10 22
e 10 27
e 10 29
e 10 30
e 10 32
e 10 33
e 10 34
e 10 37
e 10 38
e 10 40
e 10 41
e 10 48
e 10 49
e 10 54
e 10 55
e 10 56
e 10 57
e 10 58
e 10 59
e 10 61
e 10 63
e 10 65
e 11 14
e 11 16
e 11 20
e 11 21
e 11 24
e 11 25
e 11 26
e 11 29
e 11 30
e 11 36
e 11 38
e 11 42
e 11 43
e 11 46
e 11 48
e 11 49
e 11 50
e 11 51
e 11 54
e 11 56
e 11 57
e 11 59
e 11 60
e 11 63
e 11 65
e 12 13
e 12 15
e 12 16
e 12 17
e 12 19
e 12 21
e 12 22
e 12 25
e 12 27
e 12 29
e 12 31
e 12 36
e 12 38
e 12 39
e 12 40
e 12 44
e 12 46
e 12 48
e 12 50
e 12 53
e 12 55
e 12 57
e 12 60
e 12 61
e 12 62
e 12 63
e 12 64
e 13 14
e 13 16
e 13 17
e 13 18
e 13 22
e 13 24
e 13 29
e 13 30
e 13 31
e 13 32
e 13 34
e 13 35
e 13 41
e 13 42
e 13 43
e 13 44
e 13 49
e 13 51
e 13 52
e 13 53
e 13 55
e 13 58
e 13 59
e 13 60
e 13 62
e 13 64
e 14 15
e 14 17
e 14 18
e 14 23
e 14 24
e 14 26
e 14 28
e 14 31
e 14 33
e 14 36
e 14 38
e 14 40
e 14 42
e 14 43
e 14 44
e 14 45
e 14 53
e 14 56
e 14 57
e 14 58
e 14 59
e 14 60
e 14 61
e 14 62
e 14 63
e 15 17
e 15 19
e 15 24
e 15 25
e 15 26
e 15 29
e 15 32
e 15 33
e 15 39
e 15 40
e 15 41
e 15 44
e 15 45
e 15 47
e 15 49
e 15 50
e 15 52
e 15 54
e 15 55
e 15 56
e 15 57
e 15 59
e 15 61
e 15 62
e 16 17
e 16 20
e 16 22
e 16 25
e 16 27
e 16 28
e 16 33
e 16 36
e 16 38
e 16 39
e 16 41
e 16 42
e 16 47
e 16 50
e 16 51
e 16 52
e 16 53
e 16 56
e 16 58
e 16 59
e 16 61
e 16 64
e 16 65
e 17 20
e 17 23
e 17 26
e 17 27
e 17 30
e 17 31
e 17 34
e 17 35
e 17 39
e 17 45
e 17 48
e 17 49
e 17 50
e 17 51
e 17 52
e 17 53
e 17 54
e 17 57
e 17 61
e 17 62
e 17 63
e 17 65
e 18 19
e 18 20
e 18 22
e 18 23
e 18 24
e 18 26
e 18 27
e 18 28
e 18 29
e 18 30
e 18 33
e 18 35
e 18 36
e 18 37
e 18 39
e 18 41
e 18 42
e 18 43
e 18 44
e 18 47
e 18 48
e 18 49
e 18 50
e 18 59
e 18 61
e 18 62
e 18 63
e 19 20
e 19 21
e 19 22
e 19 23
e 19 25
e 19 27
e 19 30
e 19 31
e 19 33
e 19 34
e 19 36
e 19 37
e 19 38
e 19 40
e 19 41
e 19 44
e 19 45
e 19 47
e 19 49
e 19 51
e 19 57
e 19 59
e 19 60
e 19 62
e 19 65
e 20 22
e 20 23
e 20 25
e 20 26
e 20 28
e 20 29
e 20 30
e 20 34
e 20 37
e 20 39
e 20 40
e 20 42
e 20 44
e 20 45
e 20 46
e 20 48
e 20 52
e 20 53
e 20 55
e 20 56
e 20 59
e 20 63
e 20 65
e 21 22
e 21 23
e 21 25
e 21 26
e 21 29
e 21 31
e 21 32
e 21 33
e 21 35
e 21 38
e 21 39
e 21 40
e 21 41
e 21 42
e 21 43
e 21 46
e 21 49
e 21 50
e 21 51
e 21 52
e 21 57
e 21 58
e 21 60
e 21 63
e 22 24
e 22 25
e 22 30
e 22 32
e 22 35
e 22 36
e 22 37
e 22 39
e 22 40
e 22 42
e 22 43
e 22 45
e 22 52
e 22 56
e 22 57
e 22 60
e 22 61
e 22 62
e 22 64
e 22 65
e 23 28
e 23 30
e 23 31
e 23 32
e 23 38
e 23 39
e 23 40
e 23 41
e 23 43
e 23 44
e 23 48
e 23 49
e 23 50
e 23 51
e 23 53
e 23 55
e 23 56
e 23 61
e 23 64
e 23 65
e 24 25
e 24 26
e 24 27
e 24 28
e 24 30
e 24 31
e 24 34
e 24 35
e 24 36
e 24 39
e 24 40
e 24 41
e 24 43
e 24 46
e 24 50
e 24 52
e 24 54
e 24 55
e 24 58
e 24 60
e 24 61
e 24 65
e 25 28
e 25 29
e 25 31
e 25 34
e 25 35
e 25 37
e 25 38
e 25 43
e 25 44
e 25 45
e 25 49
e 25 50
e 25 53
e 25 54
e 25 58
e 25 59
e 25 61
e 25 63
e 25 64
e 26 27
e 26 29
e 26 32
e 26 33
e 26 34
e 26 36
e 26 37
e 26 38
e 26 41
e 26 42
e 26 45
e 26 48
e 26 50
e 26 51
e 26 52
e 26 55
e 26 60
e 26 61
e 26 63
e 26 64
e 27 28
e 27 30
e 27 31
e 27 33
e 27 34
e 27 36
e 27 38
e 27 39
e 27 43
e 27 45
e 27 46
e 27 47
e 27 51
e 27 52
e 27 54
e 27 55
e 27 57
e 27 59
e 27 63
e 27 64
e 28 29
e 28 33
e 28 34
e 28 35
e 28 38
e 28 39
e 28 40
e 28 42
e 28 47
e 28 48
e 28 53
e 28 54
e 28 55
e 28 57
e 28 58
e 28 60
e 28 62
e 28 64
e 29 31
e 29 32
e 29 34
e 29 35
e 29 41
e 29 42
e 29 45
e 29 46
e 29 47
e 29 48
e 29 50
e 29 51
e 29 53
e 29 55
e 29 56
e 29 57
e 29 59
e 29 62
e 30 32
e 30 35
e 30 38
e 30 44
e 30 45
e 30 46
e 30 47
e 30 48
e 30 49
e 30 50
e 30 52
e 30 53
e 30 54
e 30 56
e 30 57
e 30 58
e 30 60
e 31 34
e 31 36
e 31 37
e 31 41
e 31 42
e 31 44
e 31 46
e 31 51
e 31 52
e 31 53
e 31 54
e 31 56
e 31 58
e 31 62
e 31 63
e 31 65
e 32 33
e 32 34
e 32 36
e 32 37
e 32 39
e 32 43
e 32 44
e 32 47
e 32 50
e 32 51
e 32 53
e 32 54
e 32 55
e 32 56
e 32 57
e 32 58
e 32 64
e 33 35
e 33 36
e 33 37
e 33 38
e 33 40
e 33 46
e 33 49
e 33 51
e 33 52
e 33 53
e 33 54
e 33 56
e 33 58
e 33 59
e 33 61
e 33 62
e 34 35
e 34 36
e 34 37
e 34 38
e 34 40
e 34 41
e 34 43
e 34 44
e 34 45
e 34 48
e 34 51
e 34 54
e 34 55
e 34 57
e 34 58
e 34 65
e 35 38
e 35 40
e 35 42
e 35 43
e 35 45
e 35 46
e 35 47
e 35 49
e 35 50
e 35 51
e 35 53
e 35 54
e 35 61
e 35 62
e 35 65
e 36 37
e 36 38
e 36 39
e 36 43
e 36 44
e 36 46
e 36 47
e 36 48
e 36 50
e 36 51
e 36 53
e 36 56
e 36 60
e 36 62
e 36 65
e 37 39
e 37 41
e 37 42
e 37 45
e 37 46
e 37 48
e 37 49
e 37 53
e 37 54
e 37 58
e 37 61
e 37 62
e 37 63
e 37 64
e 38 40
e 38 41
e 38 42
e 38 44
e 38 45
e 38 49
e 38 50
e 38 53
e 38 54
e 38 55
e 38 56
e 38 60
e 38 64
e 39 40
e 39 41
e 39 42
e 39 43
e 39 46
e 39 47
e 39 49
e 39 50
e 39 52
e 39 53
e 39 54
e 39 55
e 39 57
e 39 63
e 40 42
e 40 44
e 40 46
e 40 48
e 40 51
e 40 52
e 40 55
e 40 57
e 40 58
e 40 59
e 40 61
e 40 65
e 41 42
e 41 45
e 41 47
e 41 49
e 41 50
e 41 52
e 41 55
e 41 56
e 41 58
e 41 60
e 41 61
e 41 65
e 42 44
e 42 47
e 42 51
e 42 52
e 42 54
e 42 56
e 42 57
e 42 62
e 42 63
e 42 64
e 43 44
e 43 45
e 43 46
e 43 49
e 43 51
e 43 55
e 43 56
e 43 57
e 43 59
e 43 61
e 43 63
e 43 64
e 44 47
e 44 48
e 44 50
e 44 52
e 44 54
e 44 56
e 44 58
e 44 59
e 44 63
e 44 64
e 45 46
e 45 47
e 45 52
e 45 53
e 45 56
e 45 57
e 45 59
e 45 60
e 45 61
e 45 64
e 46 48
e 46 50
e 46 52
e 46 53
e 46 55
e 46 56
e 46 58
e 46 59
e 46 62
e 47 50
e 47 51
e 47 53
e 47 57
e 47 58
e 47 59
e 47 60
e 47 63
e 47 65
e 48 49
e 48 50
e 48 51
e 48 52
e 48 57
e 48 58
e 48 60
e 48 61
e 48 62
e 48 64
e 49 51
e 49 52
e 49 53
e 49 54
e 49 55
e 49 59
e 49 60
e 49 62
e 49 63
e 50 54
e 50 58
e 50 59
e 50 61
e 50 62
e 50 64
e 50 65
e 51 52
e 51 53
e 51 57
e 51 59
e 51 61
e 51 64
e 51 65
e 52 54
e 52 56
e 52 58
e 52 59
e 52 60
e 52 64
e 53 55
e 53 56
e 53 58
e 53 60
e 53 61
e 53 63
e 54 56
e 54 57
e 54 62
e 54 63
e 54 64
e 54 65
e 55 56
e 55 59
e 55 60
e 55 62
e 55 63
e 55 64
e 55 65
e 56 57
e 56 61
e 56 62
e 56 65
e 57 58
e 57 60
e 57 61
e 57 62
e 57 63
e 58 59
e 58 60
e 58 61
e 58 63
e 59 62
e 59 63
e 59 64
e 59 65
e 60 62
e 60 63
e 60 64
e 60 65
e 61 63
e 61 64
e 61 65
e 62 64
e 62 65
e 63 65
